c This is QMaxSAT 2017 based on 14.07
c This is Glucose 3.0
c This is MiniSat 2.2.0
c WARNING: for repeatability, setting FPU to use double precision
c card = mrwto, comp = 0, pmodel = 0, narr = 2, mct = 29, verb = 0
cr firstCPXsol 0 0 0
c top = 167313
c |  Number of variables:    1800                                             |
c |  Number of clauses:      48402                                            |
c |  Weight of hard clauses: 167313                                           |
c |  Number of soft clauses: 1736                                             |
c |  Number of unit soft clauses: 0                                           |
c |  Maximum Cardinality (by unit): 354444       (0           )               |
c last restart ## conflicts  :  0 67 
o 3335 | cpuTime 0.014319 s
c Sum of weights = 177222
c A number of soft clauses remained = 868
c MRWTO encoding for Pseudo-Boolean Constraints
c sizeMax=3335
c No.0 Divisor=15	generated by pow1
c No.1 Divisor=15	generated by pow1
c No.2 Divisor=15	generated by pow1
c p0= 15	p1= 15	p2= 15	
c number of digits = 4
c linkingVar[0].size = 15, linkingVar[1].size = 15, linkingVar[2].size = 15, linkingVar[3].size = 1, 
c Pseudo-Boolean Constraints: 21937 variables and 265319 clauses
c Sum of weights = 177222
c A number of soft clauses remained = 868
c MRWTO encoding for Pseudo-Boolean Constraints
c sizeMax=3335
c No.0 Divisor=15	generated by pow1
c No.1 Divisor=15	generated by pow1
c No.2 Divisor=15	generated by pow1
c p0= 15	p1= 15	p2= 15	
c number of digits = 4
c linkingVar[0].size = 15, linkingVar[1].size = 15, linkingVar[2].size = 15, linkingVar[3].size = 1, 
c Pseudo-Boolean Constraints: 21937 variables and 265319 clauses
c last restart ## conflicts  :  92 1722 
o 2903 | cpuTime 1.30212 s
s UNKNOWN
c Search is stopped by a limit (maybe time-limit)
cr positiVarArr: [ | 10(1->9) | 57(1->26) | 73(2->12) | 105(3->14) | 126(4->5) | 173(5->22) | 200(6->19) | 212(7->1) | 256(8->15) | 284(9->13) | 317(10->16) | 339(11->8) | 367(12->6) | 420(13->29) | 425(14->4) | 478(15->27) | 504(16->23) | 513(17->2) | 558(18->17) | 595(19->24) | 629(20->28) | 651(21->20) | 679(22->18) | 702(23->11) | 721(24->1) | 758(25->7) | 784(26->3) | 836(27->25) | 851(28->10) | 892(29->21) | ]
cr the 1-th chain: [ 1->9->13->29->21->20->28->10->16->23->11->8->15->27->25->7->1 ] (#non-depot=15) {#cumul.=16}
cr the 2-th chain: [ 1->26->3->14->4->5->22->18->17->2->12->6->19->24->1 ] (#non-depot=13) {#cumul.=29}
c Latest Answer = 0 by 2 loops
c restarts              : 68441
c conflicts             : 12450241       (3463 /sec)
c decisions             : 32199919       (0.00 % random) (8957 /sec)
c propagations          : 1315784063     (366001 /sec)
c conflict literals     : 2006134129     (11.51 % deleted)
c Memory used           : 582.00 MB
c CPU time              : 3595.03 s
